(set-logic QF_SLIA)
(set-option :produce-models true)
(declare-const X String)
; href[\s]*=[\s]*"[^\n"]*"
(assert (not (str.in_re X (re.++ (str.to_re "href") (re.* (re.union (str.to_re " ") (str.to_re "\u{09}") (str.to_re "\u{0a}") (str.to_re "\u{0c}") (str.to_re "\u{0d}"))) (str.to_re "=") (re.* (re.union (str.to_re " ") (str.to_re "\u{09}") (str.to_re "\u{0a}") (str.to_re "\u{0c}") (str.to_re "\u{0d}"))) (str.to_re "\u{22}") (re.* (re.union (str.to_re "\u{0a}") (str.to_re "\u{22}"))) (str.to_re "\u{22}\u{0a}")))))
; <.*\b(bgcolor\s*=\s*[\"|\']*(\#\w{6})[\"|\']*).*>
(assert (not (str.in_re X (re.++ (str.to_re "<") (re.* re.allchar) (re.* re.allchar) (str.to_re ">\u{0a}bgcolor") (re.* (re.union (str.to_re " ") (str.to_re "\u{09}") (str.to_re "\u{0a}") (str.to_re "\u{0c}") (str.to_re "\u{0d}"))) (str.to_re "=") (re.* (re.union (str.to_re " ") (str.to_re "\u{09}") (str.to_re "\u{0a}") (str.to_re "\u{0c}") (str.to_re "\u{0d}"))) (re.* (re.union (str.to_re "\u{22}") (str.to_re "|") (str.to_re "'"))) (re.* (re.union (str.to_re "\u{22}") (str.to_re "|") (str.to_re "'"))) (str.to_re "#") ((_ re.loop 6 6) (re.union (re.range "0" "9") (re.range "A" "Z") (re.range "a" "z") (str.to_re "_")))))))
; ovplHost\x3AHost\x3ADownloadUser
(assert (not (str.in_re X (str.to_re "ovplHost:Host:DownloadUser\u{0a}"))))
; LOG\s+spyblpatHost\x3Ais\x2Ephp
(assert (not (str.in_re X (re.++ (str.to_re "LOG") (re.+ (re.union (str.to_re " ") (str.to_re "\u{09}") (str.to_re "\u{0a}") (str.to_re "\u{0c}") (str.to_re "\u{0d}"))) (str.to_re "spyblpatHost:is.php\u{0a}")))))
(assert (> (str.len X) 10))
(check-sat)
